(declare-fun bvlambda_4_ ()Bool         )
(declare-fun bvlambda_5_ ()Bool         )
(declare-fun bvlambda_6_ ()Bool         )
(declare-fun bvlambda_7_ ()Bool         )
(declare-fun bvlambda_26_ ()Bool         )
(declare-fun bvlambda_27_ ()Bool         )
(declare-fun bvlambda_28_ () (_ BitVec 2))
(declare-fun a112 () (Array (_ BitVec 1) (_ BitVec 7)))
(assert
(let (($e1 false    ))
(let (($e3 (_ bv38 6)))
(let (($e11 (_ bv0 3)))
(let (($e16 (_ bv0 6)))
(let (($e18 (_ bv0 8)))
(let (($e32 (_ bv8 7)))
(let (($e40 (_ bv12 16)))
(let (($e151        a112           ))
(let (($e210        $e151                   ))
(let (($e240 true                    ))
(let (($e241              $e240 ))
(let (($e262 (select a112        $e1 )))
(let (($e281 (concat $e18 bvlambda_27_)))
(let (($e282 (concat $e281 bvlambda_28_)))
(let (($e285                                 $e282 ))
(let (($e347                      #b1     ))
(let (($e532                  $e241 ))
(let (($e533                      bvlambda_28_ ))
(let (($e534 (concat $e533        $e3 )))
(let (($e535 ((_ extract 7 1) $e534)))
(let (($e536 (store $e210 bvlambda_26_ $e535)))
(let (($e537 (select $e536 $e532)))
(let (($e755 (concat        $e16  $e347)))
(let (($e756                    $e755       ))
(let (($e757      (bvult $e262 $e756)         ))
(let (($e759                             $e757  ))
(let (($e760              $e759 ))
(let (($e761               $e760                ))
(let (($e762 (concat bvlambda_4_ bvlambda_5_)))
(let (($e763 (concat $e762 bvlambda_6_)))
(let (($e764 (concat $e763 bvlambda_7_)))
(let (($e765 (bvshl $e40  ((_ zero_extend 12) $e764))))
(let (($e771 ((_ extract 10 10) $e765)))
(let (($e772              $e771 ))
(let (($e775               $e761          ))
(let (($e776        $e775               ))
(let (($e1010                $e776          ))
(let (($e1011        $e1010               ))
(let (($e1032                              $e1011  ))
(let (($e1089 (concat $e11 $e537)))
(let (($e1090        (bvnot $e285)               ))
(let (($e1091 ((_ extract 9 0) $e1090)))
(let (($e1092      (bvult (bvnot $e1091) $e1089)         ))
(let (($e1094                      $e1092  ))
(let (($e1105               $e1094 ))
(let (($e1106               $e1105                 ))
(let (($e1107 (bvand $e772 $e1106)))
(let (($e1108        $e1107        ))
(let (($e1198 (store a112 $e1        $e32 )))
(let (($e1199 (select $e1198 bvlambda_4_)))
(let (($e1200 (   extract      $e1199)))
(let (($e1205        $e1200               ))
(let (($e1206               $e1205                 ))
(let (($e1214                              $e1206  ))
(let (($e1217                              $e1214  ))
(let (($e1219                              $e1217  ))
(let (($e1221                              $e1219  ))
(let (($e1224                              $e1221  ))
(let (($e1242                              $e1224  ))
(let (($e1243        $e1242        ))
(let (($e1244        $e1243                ))
(let (($e1245 (bvand $e1244 $e1108)))
              (bvand (bvnot $e1245)        $e1032 )
                                                                        ))))                 )  ) ) )  )       ))    )))                                                                                         ))))          ) ))))                                                        )                    ))                                                                                                                                                                                                                                         ))  ))     ))))))) )))                                                                                                                                                                                                                         ))))))                                                                                                                                                                                        )                                                             )  ))                  )                    ))                             )                                                          )                                                                       )       )             ) )    )       ) ))
